CPXPARAM_MIP_Tolerances_MIPGap                   0
Tried aggregator 4 times.
MIP Presolve eliminated 76 rows and 2 columns.
MIP Presolve modified 104 coefficients.
Aggregator did 5 substitutions.
Reduced MIP has 251 rows, 169 columns, and 676 nonzeros.
Reduced MIP has 100 binaries, 0 generals, 0 SOSs, and 0 indicators.
Presolve time = 0.02 sec. (0.84 ticks)
Found incumbent of value 15.000000 after 0.02 sec. (2.49 ticks)
Probing time = 0.00 sec. (0.71 ticks)
Tried aggregator 1 time.
Reduced MIP has 251 rows, 169 columns, and 676 nonzeros.
Reduced MIP has 100 binaries, 0 generals, 0 SOSs, and 0 indicators.
Presolve time = 0.00 sec. (0.40 ticks)
Probing fixed 0 vars, tightened 1 bounds.
Probing time = 0.00 sec. (0.56 ticks)
Clique table members: 256.
MIP emphasis: balance optimality and feasibility.
MIP search method: dynamic search.
Parallel mode: deterministic, using up to 8 threads.
Root relaxation solution time = 0.00 sec. (0.50 ticks)

        Nodes                                         Cuts/
   Node  Left     Objective  IInf  Best Integer    Best Bound    ItCnt     Gap

*     0+    0                           15.0000        2.0000            86.67%
*     0+    0                           11.0000        2.0000            81.82%
      0     0        2.0000     5       11.0000        2.0000       27   81.82%
      0     0        7.0000     1       11.0000      Cuts: 52       65   36.36%
*     0+    0                            8.0000        7.0000            12.50%
      0     0        7.0000     1        8.0000    MIRcuts: 2       69   12.50%
*     0+    0                            7.0000        7.0000             0.00%
      0     0        cutoff              7.0000        7.0000       69    0.00%
Elapsed time = 0.14 sec. (7.66 ticks, tree = 0.01 MB, solutions = 4)

Clique cuts applied:  28
Implied bound cuts applied:  5
Mixed integer rounding cuts applied:  5

Root node processing (before b&c):
  Real time             =    0.14 sec. (7.67 ticks)
Parallel b&c, 8 threads:
  Real time             =    0.00 sec. (0.00 ticks)
  Sync time (average)   =    0.00 sec.
  Wait time (average)   =    0.00 sec.
                          ------------
Total (root+branch&cut) =    0.14 sec. (7.67 ticks)
